Minimize
  obj: x0 + x1 + x2 + x3 + x4 + x5 + x6 + x7

Subject To
  c0: x2 + x4 + x5 + x6 = 54
  c1: x0 + x2 + x4 + x5 + x6 + x7 = 183
  c2: x1 + x4 + x5 + x6 + x7 = 73
  c3: x0 + x3 + x4 + x6 + x7 = 179
  c4: x0 + x2 + x3 + x4 = 160
  c5: x0 + x1 + x2 + x5 + x6 + x7 = 182
  c6: x0 + x2 + x4 + x5 + x7 = 167

Bounds
  x0 >= 0
  x1 >= 0
  x2 >= 0
  x3 >= 0
  x4 >= 0
  x5 >= 0
  x6 >= 0
  x7 >= 0

Generals
  x0 x1 x2 x3 x4 x5 x6 x7

End
